Name: Ing0607-1
Courses: 108
Rooms: 20
Days: 5
Periods_per_day: 5
Curricula: 71
Min_Max_Daily_Lectures: 2 4
UnavailabilityConstraints: 518
RoomConstraints: 175

COURSES:
c0006 t000 3 3 31 0
c0011 t001 3 3 15 0
c0018 t002 3 3 19 0
c0026 t003 3 3 27 0
c0027 t002 3 3 27 0
c0046 t004 3 3 75 0
c0050 t005 3 1 55 1
c0051 t006 3 3 100 0
c0059 t007 3 3 100 0
c0064 t008 3 3 55 0
c0073 t009 3 2 25 1
c0080 t010 3 3 29 0
c0085 t011 3 3 55 0
c0091 t011 3 3 15 0
c0097 t012 3 3 80 0
c0099 t013 3 3 125 0
c0101 t014 3 3 80 0
c0105 t015 5 3 153 0
c0109 t016 3 3 80 0
c0128 t017 3 3 150 0
c0137 t018 3 2 168 0
c0142 t019 3 2 150 1
c0143 t020 3 3 105 0
c0154 t021 3 2 105 0
c0180 t000 3 3 160 0
c0184 t022 3 3 105 0
c0185 t023 3 2 105 0
c0189 t024 3 3 80 0
c0199 t025 3 3 80 0
c0200 t026 3 3 80 0
c0202 t027 3 3 75 0
c0212 t028 3 3 114 0
c0215 t029 3 3 83 0
c0216 t030 3 2 114 0
c0220 t031 3 3 78 0
c0228 t032 3 3 83 0
c0231 t033 3 3 65 0
c0243 t030 3 3 55 0
c0247 t034 3 3 58 0
c0261 t035 3 3 109 0
c0281 t036 3 3 49 0
c0417 t037 3 3 15 0
c0422 t031 3 3 35 0
c0427 t038 3 3 58 0
c0429 t039 3 3 125 0
c0433 t040 3 2 15 0
c0439 t041 3 3 30 0
c0440 t042 3 3 15 0
c0442 t043 3 3 15 0
c0446 t044 3 3 5 0
c0450 t022 3 3 65 0
c0452 t045 3 3 49 0
c0462 t046 3 3 66 0
c0463 t047 3 3 66 0
c0474 t048 3 3 42 0
c0484 t049 3 3 38 0
c0495 t050 3 3 16 0
c0513 t051 6 4 70 1
c0516 t052 3 3 40 0
c0524 t012 3 2 45 1
c0519 t053 5 5 75 0
c0533 t054 3 3 40 0
c0536 t055 3 3 15 0
c0600 t056 3 3 31 0
c0718 t057 3 3 5 0
c0793 t058 3 3 10 0
c0803 t016 3 3 15 0
c0806 t059 3 3 10 0
c0816 t060 3 3 24 0
c0820 t060 3 3 16 0
c0821 t061 3 3 16 0
c0823 t062 3 3 19 0
c0824 t061 3 3 16 0
c0826 t062 3 3 19 0
c0830 t063 3 3 29 0
c0836 t001 3 3 46 0
c0839 t064 3 3 10 0
c0840 t065 3 3 30 0
c0841 t066 3 3 10 0
c0846 t065 3 3 30 0
c0848 t067 3 3 10 0
c0852 t068 3 2 30 0
c0855 t069 7 2 30 1
c0857 t070 7 1 10 1
c0881 t071 3 3 100 0
c0896 t072 3 3 105 0
c0899 t073 3 2 86 0
c0935 t074 6 4 80 1
c0949 t075 7 2 50 1
c0951 t076 7 2 10 1
c0961 t077 7 2 15 0
c0965 t078 7 2 40 0
c1009 t079 3 2 76 0
c1013 t080 3 3 60 0
c1023 t081 3 3 130 0
c1027 t082 5 4 110 0
c1028 t081 3 3 110 0
c1031 t083 5 4 90 1
c1032 t081 3 3 90 0
c1033 t084 5 4 100 0
c1034 t081 3 3 100 0
c1042 t085 3 3 100 0
c1057 t016 3 3 30 0
c1067 t086 3 3 15 0
c1068 t087 3 3 38 0
c1089 t088 5 4 130 0
c1020 t086 3 3 22 0
c1058 t049 3 3 55 0

ROOMS:
r25 40 2
r36 42 2
r37 42 2
r38 48 1
r34 34 1
r27 65 1
r51 78 1
rB 216 0
rD 216 0
rF 216 0
rG 216 0
rA 312 2
rL 336 2
r50 75 1
r52 60 1
rEr1 70 1
rEr2 70 1
rDS1 140 0
rDS2 60 0
rN 30 1

CURRICULA:
q000 2 c1033 c1034 
q001 4 c0180 c0097 c0101 c0109 
q002 3 c0099 c0105 c0935 
q003 2 c1089 c1023 
q004 3 c0006 c0216 c0212 
q005 4 c0006 c0216 c0212 c0085 
q006 4 c0006 c0216 c0212 c0427 
q007 5 c0011 c0018 c0026 c0027 c1020 
q008 5 c0231 c0220 c0427 c0080 c0091 
q009 5 c0823 c0011 c0826 c0830 c0899 
q010 2 c1027 c1028 
q011 4 c0051 c0059 c1009 c1013 
q012 4 c0050 c0064 c1058 c0046 
q013 4 c0050 c0064 c0073 c1058 
q014 4 c0050 c0064 c0261 c1058 
q017 4 c0212 c0215 c0216 c0228 
q018 5 c0215 c0216 c0228 c0899 c0212 
q019 4 c0220 c0231 c0137 c0085 
q020 4 c0220 c0243 c0247 c0137 
q021 4 c0220 c0137 c0427 c0247 
q022 2 c1031 c1032 
q023 4 c0180 c0189 c0199 c0200 
q024 4 c0184 c0185 c0105 c0202 
q025 4 c0184 c0185 c0105 c0018 
q026 4 c0184 c0185 c0105 c0429 
q027 3 c0154 c0896 c0961 
q028 2 c0154 c0896 
q030 4 c0128 c0142 c0881 c0951 
q031 4 c0128 c0142 c0881 c0965 
q032 3 c0128 c0142 c0899 
q033 4 c0128 c0142 c0881 c0949 
q034 3 c0137 c0143 c1042 
q035 2 c0137 c0143 
q038 3 c0046 c0051 c0059 
q039 4 c0184 c0185 c0261 c0202 
q040 4 c0184 c0185 c0261 c0474 
q041 4 c0184 c0185 c0261 c0281 
q042 4 c0450 c1009 c0600 c0474 
q043 4 c0450 c1009 c0600 c0281 
q044 4 c0450 c0452 c0429 c0261 
q045 4 c0450 c0452 c0018 c0261 
q046 4 c0462 c0463 c0073 c0495 
q047 3 c0462 c0463 c0474 
q048 3 c0462 c0463 c0099 
q049 5 c0462 c0463 c0027 c0803 c0026 
q050 5 c0231 c0439 c0836 c0417 c0243 
q051 6 c0433 c0836 c0231 c0439 c0440 c0442 
q052 5 c0422 c0816 c0247 c0427 c0429 
q053 4 c0422 c0429 c0085 c0446 
q054 4 c0422 c0429 c0085 c0816 
q055 4 c0422 c0429 c0085 c0718 
q056 4 c0422 c0429 c0085 c0427 
q057 4 c0474 c0281 c0073 c0261 
q058 4 c0474 c0281 c0261 c0495 
q059 3 c0474 c0281 c0073 
q060 2 c0484 c1068 
q061 4 c0484 c1068 c0600 c1067 
q062 3 c0484 c1068 c0524 
q063 2 c0513 c0516 
q064 2 c0513 c0429 
q065 2 c0519 c0524 
q066 3 c0519 c0533 c1057 
q067 2 c0519 c0536 
q068 5 c0793 c0830 c0026 c1020 c0027 
q069 5 c0816 c0836 c0427 c0820 c0830 
q070 4 c0836 c0830 c0427 c0820 
q071 4 c0803 c0533 c0806 c0080 
q072 5 c0821 c0823 c0826 c0080 c0824 
q073 4 c0821 c0823 c0824 c0826 
q074 5 c0840 c0846 c0852 c0899 c0855 
q075 4 c0839 c0841 c0848 c0857 

UNAVAILABILITY_CONSTRAINTS:
c0011 0 2 
c0011 1 2 
c0011 2 0 
c0011 2 1 
c0011 2 2 
c0011 2 3 
c0011 2 4 
c0011 3 2 
c0018 0 0 
c0018 0 1 
c0018 0 2 
c0018 4 0 
c0018 4 1 
c0018 4 2 
c0018 4 3 
c0018 4 4 
c0026 0 0 
c0026 1 0 
c0026 2 0 
c0026 3 0 
c0026 4 0 
c0026 4 2 
c0026 4 3 
c0026 4 4 
c0027 0 0 
c0027 0 1 
c0027 0 2 
c0027 4 0 
c0027 4 1 
c0027 4 2 
c0027 4 3 
c0027 4 4 
c0046 0 0 
c0046 0 4 
c0046 1 0 
c0046 1 4 
c0046 2 0 
c0046 2 4 
c0046 3 0 
c0046 4 0 
c0051 2 0 
c0051 2 1 
c0051 2 2 
c0051 2 3 
c0051 2 4 
c0051 3 4 
c0051 4 3 
c0051 4 4 
c0059 0 0 
c0059 1 0 
c0059 2 0 
c0059 3 0 
c0059 3 1 
c0059 3 2 
c0059 3 3 
c0059 3 4 
c0064 1 3 
c0064 1 4 
c0064 2 3 
c0064 2 4 
c0064 3 3 
c0064 3 4 
c0064 4 3 
c0064 4 4 
c0073 0 0 
c0073 0 1 
c0073 0 2 
c0073 0 3 
c0073 0 4 
c0073 3 0 
c0073 3 1 
c0073 3 2 
c0073 3 3 
c0073 3 4 
c0073 4 0 
c0073 4 1 
c0073 4 2 
c0073 4 3 
c0073 4 4 
c0080 0 0 
c0080 0 1 
c0080 0 2 
c0080 0 3 
c0080 0 4 
c0080 2 2 
c0080 2 3 
c0080 4 2 
c0085 4 0 
c0085 4 1 
c0085 4 2 
c0085 4 3 
c0085 4 4 
c0091 4 0 
c0091 4 1 
c0091 4 2 
c0091 4 3 
c0091 4 4 
c0097 0 0 
c0097 0 1 
c0097 0 2 
c0097 0 3 
c0097 0 4 
c0097 1 0 
c0097 1 1 
c0097 1 2 
c0097 1 3 
c0099 0 0 
c0099 0 1 
c0099 0 2 
c0099 0 3 
c0099 0 4 
c0099 1 4 
c0099 3 3 
c0099 3 4 
c0099 4 4 
c0105 0 0 
c0105 3 2 
c0105 3 3 
c0105 3 4 
c0105 4 0 
c0105 4 1 
c0105 4 2 
c0105 4 3 
c0105 4 4 
c0128 0 2 
c0128 1 2 
c0128 1 4 
c0128 2 2 
c0128 2 4 
c0128 3 2 
c0128 3 4 
c0128 4 2 
c0142 0 0 
c0142 0 1 
c0142 0 2 
c0142 0 3 
c0142 0 4 
c0142 1 0 
c0142 1 1 
c0142 1 2 
c0142 1 3 
c0142 1 4 
c0142 2 0 
c0142 2 1 
c0142 2 2 
c0142 2 3 
c0142 2 4 
c0142 3 0 
c0142 3 1 
c0142 3 2 
c0142 4 3 
c0142 4 4 
c0154 0 0 
c0154 0 4 
c0154 1 0 
c0154 1 4 
c0154 2 0 
c0154 2 4 
c0154 3 0 
c0154 3 2 
c0154 3 4 
c0154 4 0 
c0154 4 2 
c0154 4 4 
c0184 3 2 
c0184 3 3 
c0184 3 4 
c0184 4 0 
c0184 4 1 
c0184 4 2 
c0184 4 3 
c0184 4 4 
c0185 2 0 
c0185 2 1 
c0185 2 2 
c0185 2 3 
c0185 2 4 
c0185 3 3 
c0199 3 2 
c0199 3 3 
c0199 3 4 
c0199 4 0 
c0199 4 1 
c0199 4 2 
c0199 4 3 
c0199 4 4 
c0202 0 0 
c0202 1 0 
c0202 2 0 
c0202 3 0 
c0202 4 0 
c0212 0 2 
c0212 1 2 
c0212 1 3 
c0212 2 2 
c0212 3 2 
c0212 4 2 
c0228 0 0 
c0228 0 4 
c0228 1 0 
c0228 1 4 
c0228 2 0 
c0228 2 4 
c0228 3 0 
c0228 3 4 
c0228 4 0 
c0228 4 4 
c0231 0 0 
c0231 0 2 
c0231 1 2 
c0231 2 2 
c0231 3 2 
c0231 4 0 
c0231 4 2 
c0231 4 4 
c0261 3 2 
c0261 3 3 
c0261 3 4 
c0261 4 0 
c0261 4 1 
c0261 4 2 
c0261 4 3 
c0261 4 4 
c0281 0 4 
c0281 1 4 
c0281 2 4 
c0281 3 4 
c0281 4 4 
c0417 0 2 
c0417 0 4 
c0417 1 4 
c0417 2 4 
c0417 3 2 
c0417 3 4 
c0417 4 2 
c0417 4 4 
c0427 1 4 
c0427 2 4 
c0427 3 4 
c0427 4 0 
c0427 4 1 
c0427 4 2 
c0427 4 3 
c0427 4 4 
c0429 0 4 
c0429 1 4 
c0429 2 4 
c0429 3 2 
c0429 3 4 
c0429 4 2 
c0429 4 3 
c0429 4 4 
c0433 0 2 
c0433 1 2 
c0433 2 2 
c0433 3 2 
c0433 4 2 
c0439 0 2 
c0439 1 2 
c0439 2 2 
c0439 3 2 
c0439 4 2 
c0440 0 0 
c0440 0 1 
c0440 0 2 
c0440 0 3 
c0440 0 4 
c0440 1 0 
c0440 1 1 
c0440 1 2 
c0442 0 0 
c0442 0 1 
c0442 0 2 
c0442 0 3 
c0442 0 4 
c0442 4 2 
c0442 4 3 
c0442 4 4 
c0450 3 2 
c0450 3 3 
c0450 3 4 
c0450 4 0 
c0450 4 1 
c0450 4 2 
c0450 4 3 
c0450 4 4 
c0452 0 0 
c0452 0 1 
c0452 0 2 
c0452 0 3 
c0452 0 4 
c0452 2 2 
c0452 2 3 
c0452 2 4 
c0452 4 0 
c0452 4 1 
c0452 4 2 
c0452 4 3 
c0452 4 4 
c0462 0 0 
c0462 1 0 
c0462 2 0 
c0462 4 0 
c0462 4 1 
c0462 4 2 
c0462 4 3 
c0462 4 4 
c0474 0 0 
c0474 0 1 
c0474 0 2 
c0474 0 3 
c0474 0 4 
c0474 4 2 
c0474 4 3 
c0474 4 4 
c0484 0 0 
c0484 0 1 
c0484 0 2 
c0484 0 3 
c0484 0 4 
c0484 4 2 
c0484 4 3 
c0484 4 4 
c0495 0 0 
c0495 0 1 
c0495 4 3 
c0495 4 4 
c0513 0 0 
c0513 0 1 
c0513 0 2 
c0513 1 0 
c0513 2 0 
c0513 3 0 
c0513 4 0 
c0513 4 4 
c0524 0 0 
c0524 0 1 
c0524 0 2 
c0524 0 3 
c0524 0 4 
c0524 1 0 
c0524 1 1 
c0524 1 2 
c0524 1 3 
c0519 4 1 
c0536 0 0 
c0536 0 1 
c0536 0 2 
c0536 0 3 
c0536 4 1 
c0536 4 2 
c0536 4 3 
c0536 4 4 
c0600 3 4 
c0600 4 4 
c0816 0 0 
c0816 0 1 
c0816 0 2 
c0816 0 3 
c0816 0 4 
c0820 0 0 
c0820 0 1 
c0820 0 2 
c0820 0 3 
c0820 0 4 
c0830 0 3 
c0830 0 4 
c0830 1 4 
c0830 2 3 
c0830 2 4 
c0830 3 4 
c0830 4 3 
c0830 4 4 
c0836 0 2 
c0836 1 2 
c0836 2 0 
c0836 2 1 
c0836 2 2 
c0836 2 3 
c0836 2 4 
c0836 3 2 
c0840 3 2 
c0840 4 2 
c0840 4 4 
c0846 3 2 
c0846 4 2 
c0846 4 4 
c0852 3 2 
c0852 3 3 
c0852 3 4 
c0852 4 0 
c0852 4 1 
c0852 4 2 
c0852 4 3 
c0852 4 4 
c0881 0 0 
c0881 0 2 
c0881 1 2 
c0881 1 4 
c0881 2 0 
c0881 3 0 
c0881 4 0 
c0881 4 1 
c0881 4 2 
c0881 4 3 
c0881 4 4 
c0896 3 2 
c0896 4 2 
c0896 4 4 
c0899 1 0 
c0899 1 1 
c0899 1 2 
c0899 2 3 
c0899 2 4 
c0899 3 0 
c0899 3 1 
c0899 3 2 
c0899 4 2 
c0899 4 4 
c0935 0 0 
c0935 0 1 
c0935 0 2 
c0935 0 3 
c0935 0 4 
c0935 4 2 
c0935 4 3 
c0935 4 4 
c1009 0 0 
c1009 1 1 
c1009 1 2 
c1009 1 3 
c1009 1 4 
c1009 2 0 
c1009 2 1 
c1009 2 2 
c1009 2 3 
c1009 2 4 
c1009 3 0 
c1009 3 1 
c1009 3 2 
c1009 3 3 
c1009 3 4 
c1009 4 0 
c1009 4 1 
c1009 4 2 
c1009 4 3 
c1009 4 4 
c1013 0 4 
c1013 1 4 
c1013 2 4 
c1013 3 4 
c1013 4 4 
c1031 0 2 
c1031 1 2 
c1031 2 2 
c1031 3 2 
c1031 4 2 
c1031 4 3 
c1031 4 4 
c1033 0 1 
c1033 0 2 
c1033 0 3 
c1033 0 4 
c1033 1 1 
c1033 1 2 
c1033 1 3 
c1033 1 4 
c1033 2 1 
c1033 2 2 
c1033 2 3 
c1033 2 4 
c1033 3 1 
c1033 3 2 
c1033 3 3 
c1033 3 4 
c1033 4 1 
c1033 4 2 
c1033 4 3 
c1033 4 4 
c1067 0 0 
c1067 0 1 
c1067 0 2 
c1067 0 3 
c1067 0 4 
c1067 4 2 
c1067 4 3 
c1067 4 4 
c1068 0 0 
c1068 0 1 
c1068 0 2 
c1068 0 3 
c1068 4 1 
c1068 4 2 
c1068 4 3 
c1068 4 4 
c1089 0 2 
c1089 1 2 
c1089 2 2 
c1089 3 2 
c1089 4 2 
c1089 4 3 
c1089 4 4 
c1020 0 0 
c1020 0 1 
c1020 0 2 
c1020 0 3 
c1020 0 4 
c1020 4 2 
c1020 4 3 
c1020 4 4 
c1058 0 0 
c1058 0 1 
c1058 0 2 
c1058 0 3 
c1058 0 4 
c1058 4 2 
c1058 4 3 
c1058 4 4 

ROOM_CONSTRAINTS:
c0006 r37
c0006 rG
c0006 r52
c0006 rDS1
c0011 r37
c0011 rA
c0018 rD
c0026 r34
c0027 rD
c0027 rA
c0046 r27
c0050 r36
c0059 rL
c0059 rEr1
c0059 rEr2
c0064 r27
c0064 r52
c0064 rDS2
c0073 rDS2
c0080 r25
c0085 rL
c0091 r27
c0091 r51
c0091 rB
c0097 rD
c0097 rN
c0099 rEr1
c0105 r51
c0109 rA
c0137 r52
c0142 r38
c0142 r51
c0142 rA
c0142 rEr1
c0143 r25
c0143 r36
c0143 rF
c0180 r34
c0180 rF
c0184 r36
c0184 r50
c0185 rDS1
c0189 r38
c0189 r52
c0189 rN
c0200 r51
c0202 r37
c0202 rEr1
c0212 r25
c0212 r38
c0212 r27
c0216 r38
c0220 r27
c0228 r38
c0228 r50
c0228 rEr2
c0231 r38
c0231 rF
c0231 rG
c0231 rDS1
c0243 r38
c0243 rN
c0247 r37
c0247 rDS2
c0261 rEr1
c0281 rF
c0417 rEr1
c0417 rN
c0422 rDS1
c0427 r37
c0433 r27
c0440 r34
c0446 r51
c0446 r50
c0450 r25
c0462 r36
c0462 rG
c0463 r37
c0463 rL
c0463 rDS1
c0474 r38
c0474 rL
c0484 r36
c0484 rL
c0513 r37
c0516 rDS2
c0524 rDS1
c0519 r51
c0519 r52
c0519 rDS2
c0533 rF
c0533 r50
c0533 rN
c0536 rA
c0536 r50
c0600 r51
c0718 r27
c0803 r37
c0806 rN
c0816 rD
c0820 rDS2
c0823 r36
c0823 r34
c0823 rF
c0824 r36
c0824 rF
c0824 rL
c0824 rEr1
c0826 rA
c0826 rDS1
c0830 rB
c0830 rD
c0830 r50
c0830 rDS2
c0836 r52
c0839 rEr1
c0840 rN
c0841 rA
c0848 r25
c0848 r36
c0848 r50
c0852 r25
c0855 rDS2
c0855 rN
c0857 r25
c0857 rB
c0857 rL
c0857 r52
c0857 rDS1
c0896 r50
c0899 r37
c0899 rD
c0899 rEr2
c0935 r36
c0935 rN
c0949 rF
c0949 rA
c0961 rF
c0961 r52
c0961 rEr1
c0965 rEr1
c0965 rDS1
c0965 rDS2
c1009 r37
c1009 r34
c1009 r27
c1009 rDS2
c1013 r36
c1013 rL
c1013 rEr1
c1023 rF
c1023 rL
c1027 rB
c1028 r36
c1028 r50
c1031 rL
c1032 r37
c1032 rEr1
c1034 rEr1
c1057 r37
c1057 r51
c1057 rB
c1057 rD
c1057 rF
c1057 rG
c1067 r34
c1068 r38
c1068 rB
c1068 rL
c1068 rDS2
c1020 rD
c1020 rDS2
c1058 r34
c1058 rB
c1058 rDS1

END.
